NAME: GRASP_12_5
TYPE: TSP
COMMENT: line_12_5
DIMENSION: 12
EDGE_WEIGHT_TYPE: EUC_2D
NODE_COORD_SECTION
1 0.0 5.0
2 0.0 2.0
3 0.0 65.0
4 0.0 114.0
5 0.0 105.0
6 0.0 109.0
7 0.0 33.0
8 0.0 72.0
9 0.0 0.0
10 0.0 65.0
11 0.0 0.0
12 0.0 87.0
